************************************************************************
file with basedata            : mm38_.bas
initial value random generator: 84442701
************************************************************************
projects                      :  1
jobs (incl. supersource/sink ):  12
horizon                       :  75
RESOURCES
  - renewable                 :  2   R
  - nonrenewable              :  2   N
  - doubly constrained        :  0   D
************************************************************************
PROJECT INFORMATION:
pronr.  #jobs rel.date duedate tardcost  MPM-Time
    1     10      0       12        2       12
************************************************************************
PRECEDENCE RELATIONS:
jobnr.    #modes  #successors   successors
   0        1          3           1   2   3
   1        3          2           4   9
   2        3          2           6  10
   3        3          1           8
   4        3          2           5   7
   5        3          2           8  10
   6        3          1           9
   7        3          2           8  10
   8        3          1          11
   9        3          1          11
  10        3          1          11
  11        1          0        
************************************************************************
REQUESTS/DURATIONS:
jobnr. mode duration  R 1  R 2  R 3  R 4  E(W 1)  E(W 2)  E(W 3)
------------------------------------------------------------------------
  0      1     0       0    0    0    0     0       0       0
  1      1     3       7    3    7    9    30      21      27
  2      1     3       8   10   10    3    54      30       9
  3      1     1       7    2    3    6     9       3       6
  4      1     1       8    8    9    6    16       9       6
  5      1     3       9    2   10    9    33      30      27
  6      1     4       4    9    7    4    52      28      16
  7      1     2      10   10    6    8    40      12      16
  8      1     5       5    6    9    5    55      45      25
  9      1     1       5    8   10    8    13      10       8
 10      1     3       9    7    4    7    48      12      21
 11      1     0       0    0    0    0     0       0       0
************************************************************************
RESOURCEAVAILABILITIES:
  R 1  R 2  R 3
   25   60   58
************************************************************************
RESOURCE LIMITS:
jobnr.  l(R 1)  u(R 1)  l(R 2)  u(R 2)  l(R 3)  u(R 3)
------------------------------------------------------------------------
  0        0       0       0       0       0       0
  1        6      10       4       7       5       9
  2        9      18       5      10       2       3
  3        5       9       2       3       3       6
  4        8      16       5       9       3       6
  5        6      11       5      10       5       9
  6        7      13       4       7       2       4
  7       10      20       3       6       4       8
  8        6      11       5       9       3       5
  9        7      13       5      10       4       8
 10        9      16       2       4       4       7
 11        0       0       0       0       0       0
************************************************************************
SCENARIOS:
------------------------------------------------------------------------
RESOURCE k = 1
s = 1: (0, 30, 36, 8, 14, 34, 72, 31, 60, 21, 48, 0)
s = 2: (0, 22, 57, 12, 19, 30, 34, 49, 46, 14, 38, 0)
s = 3: (0, 44, 35, 9, 14, 34, 45, 58, 30, 18, 80, 0)
s = 4: (0, 17, 57, 8, 16, 27, 32, 37, 73, 19, 53, 0)
s = 5: (0, 21, 55, 11, 16, 27, 66, 42, 34, 11, 37, 0)
s = 6: (0, 32, 71, 13, 13, 30, 47, 52, 56, 11, 39, 0)
s = 7: (0, 21, 61, 9, 11, 27, 62, 25, 61, 18, 64, 0)
s = 8: (0, 22, 47, 11, 23, 36, 43, 25, 65, 12, 63, 0)
s = 9: (0, 27, 54, 7, 17, 48, 37, 31, 48, 9, 50, 0)
s = 10: (0, 28, 30, 9, 10, 35, 64, 40, 53, 11, 72, 0)
s = 11: (0, 20, 80, 10, 21, 23, 55, 63, 33, 19, 37, 0)
s = 12: (0, 34, 43, 9, 11, 22, 62, 38, 31, 17, 49, 0)
s = 13: (0, 24, 51, 6, 12, 43, 45, 50, 49, 9, 45, 0)
s = 14: (0, 38, 31, 7, 17, 25, 46, 48, 47, 21, 44, 0)
s = 15: (0, 20, 49, 9, 21, 23, 49, 39, 38, 12, 26, 0)
s = 16: (0, 28, 37, 9, 14, 37, 66, 28, 44, 11, 36, 0)
s = 17: (0, 48, 67, 14, 11, 41, 37, 27, 37, 13, 62, 0)
s = 18: (0, 35, 43, 11, 16, 21, 59, 40, 62, 15, 53, 0)
s = 19: (0, 31, 75, 6, 11, 60, 57, 32, 70, 14, 54, 0)
s = 20: (0, 47, 70, 6, 11, 25, 46, 26, 49, 10, 35, 0)
s = 21: (0, 31, 50, 9, 21, 41, 61, 49, 38, 15, 38, 0)
s = 22: (0, 33, 82, 10, 22, 26, 33, 46, 41, 13, 56, 0)
s = 23: (0, 30, 55, 11, 20, 40, 45, 69, 34, 15, 49, 0)
s = 24: (0, 51, 33, 11, 25, 58, 45, 31, 32, 18, 69, 0)
s = 25: (0, 22, 59, 6, 22, 50, 62, 27, 34, 13, 40, 0)
s = 26: (0, 39, 51, 12, 13, 21, 73, 38, 66, 8, 27, 0)
s = 27: (0, 39, 54, 9, 18, 34, 44, 33, 58, 8, 43, 0)
s = 28: (0, 24, 56, 10, 14, 51, 37, 31, 35, 13, 70, 0)
s = 29: (0, 31, 66, 8, 15, 27, 32, 22, 71, 11, 64, 0)
s = 30: (0, 31, 56, 10, 9, 35, 36, 63, 36, 12, 34, 0)
s = 31: (0, 26, 62, 9, 25, 48, 72, 60, 36, 14, 38, 0)
s = 32: (0, 24, 48, 10, 20, 27, 61, 40, 45, 18, 81, 0)
s = 33: (0, 33, 48, 14, 17, 47, 62, 42, 43, 12, 77, 0)
s = 34: (0, 41, 47, 6, 14, 37, 43, 25, 32, 16, 25, 0)
s = 35: (0, 28, 51, 7, 18, 33, 56, 40, 39, 14, 49, 0)
s = 36: (0, 33, 42, 7, 13, 26, 34, 46, 39, 10, 70, 0)
s = 37: (0, 20, 45, 12, 15, 20, 50, 38, 45, 21, 31, 0)
s = 38: (0, 34, 81, 11, 14, 29, 37, 25, 50, 13, 71, 0)
s = 39: (0, 35, 39, 9, 19, 32, 47, 51, 61, 15, 70, 0)
s = 40: (0, 43, 38, 7, 13, 38, 48, 38, 51, 16, 33, 0)
s = 41: (0, 19, 34, 11, 27, 40, 33, 58, 55, 19, 37, 0)
s = 42: (0, 28, 67, 12, 18, 32, 49, 36, 55, 10, 54, 0)
s = 43: (0, 28, 80, 11, 17, 36, 45, 53, 62, 15, 61, 0)
s = 44: (0, 32, 40, 11, 12, 56, 42, 66, 44, 15, 59, 0)
s = 45: (0, 35, 43, 6, 15, 22, 72, 51, 78, 12, 47, 0)
s = 46: (0, 26, 46, 8, 20, 22, 47, 50, 54, 14, 54, 0)
s = 47: (0, 19, 44, 9, 19, 36, 67, 27, 58, 15, 42, 0)
s = 48: (0, 25, 43, 11, 10, 43, 56, 31, 76, 21, 53, 0)
s = 49: (0, 22, 39, 10, 14, 23, 40, 23, 71, 10, 46, 0)
s = 50: (0, 38, 74, 9, 16, 41, 88, 34, 42, 14, 41, 0)
s = 51: (0, 25, 55, 9, 10, 32, 54, 36, 43, 8, 37, 0)
s = 52: (0, 23, 67, 8, 12, 47, 29, 50, 51, 11, 39, 0)
s = 53: (0, 52, 37, 10, 20, 49, 69, 45, 66, 8, 36, 0)
s = 54: (0, 31, 38, 8, 16, 38, 49, 39, 53, 16, 41, 0)
s = 55: (0, 33, 54, 5, 22, 25, 44, 45, 35, 11, 40, 0)
s = 56: (0, 36, 50, 7, 13, 26, 31, 38, 33, 13, 31, 0)
s = 57: (0, 27, 85, 8, 17, 42, 32, 53, 37, 20, 50, 0)
s = 58: (0, 27, 56, 7, 11, 30, 62, 33, 56, 20, 55, 0)
s = 59: (0, 24, 54, 7, 11, 29, 88, 28, 42, 11, 68, 0)
s = 60: (0, 36, 55, 11, 18, 34, 50, 45, 52, 10, 38, 0)
s = 61: (0, 44, 66, 7, 20, 29, 41, 34, 68, 13, 47, 0)
s = 62: (0, 34, 54, 8, 19, 49, 48, 34, 42, 10, 55, 0)
s = 63: (0, 28, 52, 12, 18, 26, 49, 39, 49, 16, 56, 0)
s = 64: (0, 22, 62, 11, 15, 27, 37, 61, 71, 10, 38, 0)
s = 65: (0, 29, 48, 7, 16, 24, 74, 38, 45, 18, 62, 0)
s = 66: (0, 34, 54, 8, 11, 48, 61, 49, 58, 18, 33, 0)
s = 67: (0, 24, 55, 7, 10, 26, 50, 32, 43, 15, 42, 0)
s = 68: (0, 28, 32, 7, 22, 22, 39, 37, 55, 14, 33, 0)
s = 69: (0, 32, 87, 8, 13, 26, 41, 45, 50, 11, 87, 0)
s = 70: (0, 37, 55, 14, 13, 38, 52, 44, 55, 12, 52, 0)
s = 71: (0, 35, 68, 14, 26, 46, 43, 41, 53, 11, 26, 0)
s = 72: (0, 30, 35, 12, 12, 23, 56, 26, 65, 15, 46, 0)
s = 73: (0, 19, 81, 11, 18, 36, 75, 46, 94, 12, 75, 0)
s = 74: (0, 23, 53, 8, 16, 41, 81, 38, 41, 11, 75, 0)
s = 75: (0, 28, 54, 7, 24, 27, 61, 30, 49, 13, 55, 0)
s = 76: (0, 22, 57, 13, 16, 54, 32, 45, 50, 25, 74, 0)
s = 77: (0, 22, 45, 7, 21, 28, 45, 32, 41, 8, 42, 0)
s = 78: (0, 29, 53, 7, 12, 46, 71, 30, 32, 12, 63, 0)
s = 79: (0, 29, 44, 9, 14, 24, 66, 42, 72, 9, 32, 0)
s = 80: (0, 25, 35, 11, 19, 20, 30, 39, 48, 18, 31, 0)
s = 81: (0, 31, 53, 8, 22, 37, 39, 29, 51, 11, 38, 0)
s = 82: (0, 24, 55, 6, 12, 28, 45, 41, 64, 9, 34, 0)
s = 83: (0, 41, 59, 8, 13, 28, 35, 58, 31, 12, 62, 0)
s = 84: (0, 24, 38, 6, 13, 51, 45, 70, 40, 12, 46, 0)
s = 85: (0, 22, 39, 6, 27, 30, 46, 43, 63, 15, 43, 0)
s = 86: (0, 24, 41, 10, 20, 35, 59, 45, 40, 13, 51, 0)
s = 87: (0, 42, 79, 10, 12, 46, 51, 48, 50, 10, 75, 0)
s = 88: (0, 32, 57, 9, 14, 58, 54, 39, 49, 11, 72, 0)
s = 89: (0, 42, 81, 9, 14, 31, 46, 56, 43, 13, 60, 0)
s = 90: (0, 35, 60, 9, 14, 26, 44, 43, 72, 10, 37, 0)
s = 91: (0, 24, 73, 10, 13, 32, 75, 40, 42, 20, 38, 0)
s = 92: (0, 35, 32, 8, 15, 47, 62, 41, 74, 10, 34, 0)
s = 93: (0, 24, 47, 9, 21, 41, 51, 28, 69, 19, 29, 0)
s = 94: (0, 33, 52, 11, 9, 39, 77, 57, 46, 12, 39, 0)
s = 95: (0, 49, 45, 13, 20, 32, 53, 32, 38, 18, 45, 0)
s = 96: (0, 26, 46, 12, 17, 35, 54, 64, 68, 12, 82, 0)
s = 97: (0, 34, 62, 8, 24, 23, 47, 33, 47, 9, 50, 0)
s = 98: (0, 20, 37, 8, 28, 22, 78, 50, 64, 20, 31, 0)
s = 99: (0, 30, 42, 10, 14, 31, 50, 60, 67, 14, 51, 0)
s = 100: (0, 23, 54, 12, 12, 21, 56, 40, 42, 13, 46, 0)
s = 101: (0, 19, 79, 10, 21, 28, 57, 26, 38, 9, 36, 0)
s = 102: (0, 35, 71, 5, 23, 35, 44, 42, 52, 10, 49, 0)
s = 103: (0, 20, 44, 9, 15, 40, 50, 49, 35, 16, 72, 0)
s = 104: (0, 32, 50, 9, 22, 34, 83, 32, 50, 9, 47, 0)
s = 105: (0, 28, 68, 11, 16, 24, 72, 37, 57, 13, 49, 0)
s = 106: (0, 33, 58, 8, 22, 29, 73, 26, 56, 11, 60, 0)
s = 107: (0, 38, 90, 10, 20, 35, 53, 35, 60, 19, 51, 0)
s = 108: (0, 43, 47, 10, 12, 24, 94, 28, 45, 18, 45, 0)
s = 109: (0, 24, 42, 11, 26, 69, 50, 26, 63, 10, 61, 0)
s = 110: (0, 31, 63, 16, 12, 44, 75, 50, 61, 22, 40, 0)
s = 111: (0, 27, 70, 7, 14, 36, 44, 48, 61, 10, 64, 0)
s = 112: (0, 25, 59, 11, 18, 45, 59, 47, 54, 9, 68, 0)
s = 113: (0, 23, 52, 8, 15, 49, 89, 51, 89, 10, 59, 0)
s = 114: (0, 39, 48, 8, 19, 24, 51, 42, 82, 8, 74, 0)
s = 115: (0, 46, 57, 6, 9, 22, 35, 32, 41, 7, 75, 0)
s = 116: (0, 28, 50, 10, 10, 19, 76, 22, 55, 13, 36, 0)
s = 117: (0, 26, 99, 15, 18, 32, 46, 37, 73, 11, 53, 0)
s = 118: (0, 25, 34, 10, 16, 46, 54, 35, 79, 13, 47, 0)
s = 119: (0, 37, 30, 10, 14, 34, 60, 51, 41, 17, 27, 0)
s = 120: (0, 16, 64, 6, 21, 38, 65, 36, 57, 14, 74, 0)
s = 121: (0, 31, 65, 8, 11, 34, 45, 44, 43, 16, 56, 0)
s = 122: (0, 20, 58, 14, 19, 31, 62, 30, 44, 15, 81, 0)
s = 123: (0, 31, 34, 6, 19, 25, 86, 60, 36, 15, 73, 0)
s = 124: (0, 39, 41, 12, 25, 34, 47, 43, 44, 13, 54, 0)
s = 125: (0, 46, 87, 7, 14, 27, 75, 43, 40, 12, 53, 0)
s = 126: (0, 28, 53, 6, 17, 21, 84, 53, 53, 15, 34, 0)
s = 127: (0, 46, 46, 13, 17, 25, 28, 47, 50, 8, 29, 0)
s = 128: (0, 30, 61, 7, 23, 38, 51, 51, 58, 20, 61, 0)
s = 129: (0, 30, 46, 5, 9, 53, 32, 35, 47, 15, 47, 0)
s = 130: (0, 33, 75, 10, 21, 46, 47, 54, 50, 13, 54, 0)
s = 131: (0, 21, 56, 9, 15, 39, 46, 51, 40, 9, 63, 0)
s = 132: (0, 39, 38, 13, 17, 32, 54, 67, 55, 10, 70, 0)
s = 133: (0, 17, 60, 8, 16, 17, 43, 46, 47, 20, 49, 0)
s = 134: (0, 28, 39, 12, 16, 21, 59, 50, 66, 10, 29, 0)
s = 135: (0, 22, 46, 11, 19, 45, 72, 68, 48, 9, 53, 0)
s = 136: (0, 25, 47, 7, 18, 40, 82, 32, 58, 12, 57, 0)
s = 137: (0, 43, 59, 6, 15, 22, 74, 33, 41, 16, 38, 0)
s = 138: (0, 43, 56, 10, 18, 25, 32, 45, 91, 11, 63, 0)
s = 139: (0, 20, 39, 8, 26, 41, 54, 53, 69, 16, 79, 0)
s = 140: (0, 28, 78, 16, 16, 33, 80, 26, 71, 10, 51, 0)
s = 141: (0, 26, 38, 6, 12, 33, 37, 36, 46, 15, 72, 0)
s = 142: (0, 22, 65, 13, 14, 44, 54, 44, 66, 11, 45, 0)
s = 143: (0, 29, 37, 8, 16, 24, 100, 35, 82, 14, 33, 0)
s = 144: (0, 35, 49, 10, 12, 23, 55, 38, 65, 18, 61, 0)
s = 145: (0, 30, 44, 9, 13, 26, 27, 62, 44, 9, 51, 0)
s = 146: (0, 18, 62, 8, 22, 23, 51, 69, 70, 14, 46, 0)
s = 147: (0, 28, 56, 15, 10, 44, 34, 31, 63, 9, 40, 0)
s = 148: (0, 28, 65, 6, 24, 23, 42, 43, 55, 10, 43, 0)
s = 149: (0, 30, 59, 5, 22, 31, 58, 36, 57, 9, 43, 0)
s = 150: (0, 27, 54, 13, 22, 26, 53, 36, 51, 16, 37, 0)
s = 151: (0, 40, 71, 7, 14, 36, 53, 42, 43, 10, 63, 0)
s = 152: (0, 28, 63, 6, 12, 37, 59, 48, 63, 10, 36, 0)
s = 153: (0, 37, 46, 7, 9, 27, 46, 39, 58, 14, 47, 0)
s = 154: (0, 26, 61, 8, 13, 20, 45, 29, 47, 9, 54, 0)
s = 155: (0, 19, 59, 6, 13, 22, 49, 40, 62, 11, 39, 0)
s = 156: (0, 50, 55, 9, 20, 43, 69, 38, 99, 10, 42, 0)
s = 157: (0, 28, 56, 6, 14, 26, 39, 29, 45, 16, 48, 0)
s = 158: (0, 38, 81, 8, 15, 19, 85, 31, 66, 15, 43, 0)
s = 159: (0, 26, 51, 12, 22, 45, 32, 64, 70, 15, 58, 0)
s = 160: (0, 25, 69, 6, 16, 34, 36, 49, 87, 9, 34, 0)
s = 161: (0, 22, 43, 7, 11, 27, 30, 58, 71, 12, 90, 0)
s = 162: (0, 22, 60, 8, 17, 32, 54, 59, 54, 8, 41, 0)
s = 163: (0, 34, 44, 11, 16, 29, 43, 44, 52, 15, 62, 0)
s = 164: (0, 27, 63, 11, 11, 24, 30, 44, 51, 10, 35, 0)
s = 165: (0, 33, 63, 10, 13, 19, 43, 36, 50, 15, 57, 0)
s = 166: (0, 41, 67, 7, 14, 37, 48, 32, 45, 12, 54, 0)
s = 167: (0, 47, 40, 7, 20, 20, 40, 32, 59, 17, 59, 0)
s = 168: (0, 34, 47, 6, 14, 34, 43, 25, 70, 9, 44, 0)
s = 169: (0, 23, 39, 8, 11, 28, 48, 40, 38, 12, 51, 0)
s = 170: (0, 28, 62, 12, 19, 28, 42, 32, 53, 9, 53, 0)
s = 171: (0, 36, 63, 10, 10, 42, 75, 44, 46, 16, 33, 0)
s = 172: (0, 24, 76, 14, 20, 33, 44, 47, 41, 9, 51, 0)
s = 173: (0, 33, 75, 9, 19, 47, 51, 34, 76, 16, 37, 0)
s = 174: (0, 27, 40, 8, 16, 38, 63, 49, 60, 13, 48, 0)
s = 175: (0, 38, 34, 12, 14, 41, 48, 40, 33, 8, 32, 0)
s = 176: (0, 20, 31, 6, 17, 35, 39, 54, 53, 12, 52, 0)
s = 177: (0, 22, 84, 10, 12, 49, 51, 49, 73, 23, 82, 0)
s = 178: (0, 42, 44, 7, 12, 22, 42, 41, 55, 15, 65, 0)
s = 179: (0, 39, 38, 10, 21, 23, 48, 44, 60, 12, 52, 0)
s = 180: (0, 28, 44, 9, 18, 37, 45, 42, 78, 16, 56, 0)
s = 181: (0, 23, 56, 13, 19, 25, 65, 25, 55, 13, 66, 0)
s = 182: (0, 37, 46, 7, 15, 39, 58, 44, 47, 9, 40, 0)
s = 183: (0, 26, 39, 6, 16, 21, 59, 55, 71, 9, 32, 0)
s = 184: (0, 27, 30, 9, 16, 58, 59, 31, 76, 15, 49, 0)
s = 185: (0, 54, 45, 13, 11, 40, 45, 65, 46, 16, 42, 0)
s = 186: (0, 32, 53, 10, 19, 53, 56, 37, 75, 11, 36, 0)
s = 187: (0, 21, 69, 7, 10, 39, 46, 43, 60, 11, 65, 0)
s = 188: (0, 27, 70, 12, 16, 36, 70, 22, 50, 18, 60, 0)
s = 189: (0, 25, 46, 7, 13, 26, 39, 32, 60, 20, 82, 0)
s = 190: (0, 31, 35, 7, 17, 62, 57, 24, 47, 14, 29, 0)
s = 191: (0, 31, 36, 6, 14, 27, 39, 32, 48, 20, 81, 0)
s = 192: (0, 38, 67, 7, 24, 53, 48, 45, 44, 17, 47, 0)
s = 193: (0, 25, 46, 9, 20, 32, 56, 52, 95, 17, 38, 0)
s = 194: (0, 20, 36, 9, 21, 44, 41, 30, 57, 11, 42, 0)
s = 195: (0, 36, 53, 7, 19, 31, 44, 60, 54, 18, 50, 0)
s = 196: (0, 28, 51, 12, 10, 30, 59, 46, 51, 10, 47, 0)
s = 197: (0, 52, 58, 11, 15, 18, 46, 38, 50, 10, 50, 0)
s = 198: (0, 22, 59, 13, 12, 33, 34, 34, 66, 12, 57, 0)
s = 199: (0, 25, 65, 7, 16, 30, 38, 64, 66, 9, 54, 0)
s = 200: (0, 35, 38, 6, 16, 40, 49, 57, 40, 19, 36, 0)
------------------------------------------------------------------------
RESOURCE k = 2
s = 1: (0, 21, 20, 3, 8, 31, 39, 10, 49, 17, 12, 0)
s = 2: (0, 16, 32, 4, 11, 27, 18, 15, 38, 11, 10, 0)
s = 3: (0, 31, 20, 3, 8, 31, 24, 18, 25, 14, 20, 0)
s = 4: (0, 12, 32, 3, 9, 25, 17, 12, 60, 15, 14, 0)
s = 5: (0, 15, 31, 4, 9, 25, 36, 13, 28, 9, 10, 0)
s = 6: (0, 23, 40, 5, 8, 27, 26, 16, 46, 8, 10, 0)
s = 7: (0, 15, 34, 3, 6, 24, 34, 8, 50, 14, 16, 0)
s = 8: (0, 16, 26, 4, 13, 33, 23, 8, 53, 10, 16, 0)
s = 9: (0, 19, 30, 3, 10, 43, 20, 10, 39, 7, 13, 0)
s = 10: (0, 20, 17, 3, 6, 32, 35, 12, 44, 9, 18, 0)
s = 11: (0, 14, 44, 4, 12, 21, 30, 19, 27, 15, 10, 0)
s = 12: (0, 24, 24, 3, 6, 20, 33, 12, 26, 13, 13, 0)
s = 13: (0, 17, 29, 2, 7, 40, 24, 15, 41, 7, 12, 0)
s = 14: (0, 27, 17, 3, 10, 22, 25, 15, 39, 16, 11, 0)
s = 15: (0, 14, 28, 3, 12, 21, 26, 12, 31, 10, 7, 0)
s = 16: (0, 20, 21, 3, 8, 33, 36, 9, 36, 8, 9, 0)
s = 17: (0, 34, 38, 5, 7, 37, 20, 8, 30, 10, 16, 0)
s = 18: (0, 25, 24, 4, 9, 19, 32, 12, 51, 12, 14, 0)
s = 19: (0, 22, 42, 2, 7, 54, 31, 10, 57, 11, 14, 0)
s = 20: (0, 33, 39, 2, 6, 23, 25, 8, 40, 8, 9, 0)
s = 21: (0, 22, 28, 3, 12, 37, 33, 15, 31, 12, 10, 0)
s = 22: (0, 23, 46, 4, 13, 24, 18, 14, 34, 10, 14, 0)
s = 23: (0, 21, 31, 4, 12, 37, 24, 21, 28, 12, 13, 0)
s = 24: (0, 36, 18, 4, 14, 53, 24, 10, 27, 14, 18, 0)
s = 25: (0, 15, 33, 2, 12, 45, 33, 8, 28, 10, 10, 0)
s = 26: (0, 28, 29, 4, 7, 19, 40, 12, 54, 7, 7, 0)
s = 27: (0, 27, 30, 3, 10, 31, 24, 10, 47, 6, 11, 0)
s = 28: (0, 17, 31, 4, 8, 46, 20, 10, 29, 10, 18, 0)
s = 29: (0, 22, 37, 3, 9, 25, 18, 7, 58, 9, 16, 0)
s = 30: (0, 22, 31, 4, 5, 31, 20, 19, 30, 9, 9, 0)
s = 31: (0, 18, 34, 3, 14, 43, 39, 18, 29, 11, 10, 0)
s = 32: (0, 17, 27, 4, 12, 24, 33, 12, 37, 14, 21, 0)
s = 33: (0, 23, 27, 5, 10, 43, 34, 13, 35, 9, 20, 0)
s = 34: (0, 29, 26, 2, 8, 33, 23, 8, 26, 13, 7, 0)
s = 35: (0, 20, 28, 3, 11, 30, 30, 12, 32, 11, 13, 0)
s = 36: (0, 23, 23, 3, 8, 24, 19, 14, 32, 8, 18, 0)
s = 37: (0, 14, 25, 4, 9, 19, 27, 12, 37, 16, 8, 0)
s = 38: (0, 24, 45, 4, 8, 26, 20, 8, 41, 10, 18, 0)
s = 39: (0, 24, 22, 3, 11, 29, 25, 16, 50, 12, 18, 0)
s = 40: (0, 30, 21, 3, 8, 35, 26, 12, 42, 13, 9, 0)
s = 41: (0, 14, 19, 4, 15, 36, 18, 18, 45, 14, 10, 0)
s = 42: (0, 20, 38, 4, 10, 29, 27, 11, 45, 8, 14, 0)
s = 43: (0, 20, 45, 4, 10, 33, 24, 16, 51, 12, 16, 0)
s = 44: (0, 23, 23, 4, 7, 51, 23, 20, 36, 11, 15, 0)
s = 45: (0, 25, 24, 2, 9, 20, 39, 16, 64, 9, 12, 0)
s = 46: (0, 18, 26, 3, 11, 20, 26, 15, 45, 11, 14, 0)
s = 47: (0, 14, 25, 3, 11, 33, 36, 8, 47, 11, 11, 0)
s = 48: (0, 18, 24, 4, 6, 39, 30, 10, 62, 16, 14, 0)
s = 49: (0, 16, 22, 4, 8, 21, 22, 7, 58, 8, 12, 0)
s = 50: (0, 27, 41, 3, 9, 37, 48, 11, 34, 11, 11, 0)
s = 51: (0, 18, 31, 3, 6, 29, 29, 11, 35, 6, 10, 0)
s = 52: (0, 16, 37, 3, 7, 43, 16, 15, 42, 9, 10, 0)
s = 53: (0, 36, 21, 4, 12, 45, 37, 14, 54, 6, 9, 0)
s = 54: (0, 22, 21, 3, 9, 34, 27, 12, 44, 12, 11, 0)
s = 55: (0, 23, 30, 2, 13, 23, 24, 14, 29, 9, 10, 0)
s = 56: (0, 25, 28, 3, 8, 24, 17, 12, 27, 10, 8, 0)
s = 57: (0, 19, 47, 3, 10, 38, 17, 16, 30, 15, 13, 0)
s = 58: (0, 19, 31, 3, 7, 28, 34, 10, 46, 15, 14, 0)
s = 59: (0, 17, 30, 3, 7, 26, 48, 9, 35, 9, 17, 0)
s = 60: (0, 26, 31, 4, 10, 31, 27, 14, 43, 8, 10, 0)
s = 61: (0, 31, 37, 3, 11, 26, 22, 10, 56, 10, 12, 0)
s = 62: (0, 24, 30, 3, 11, 45, 26, 11, 35, 8, 14, 0)
s = 63: (0, 20, 29, 4, 10, 23, 27, 12, 40, 12, 14, 0)
s = 64: (0, 16, 34, 4, 9, 25, 20, 19, 59, 8, 10, 0)
s = 65: (0, 20, 27, 3, 9, 22, 40, 12, 37, 14, 16, 0)
s = 66: (0, 24, 30, 3, 6, 44, 33, 15, 47, 14, 9, 0)
s = 67: (0, 17, 31, 3, 6, 24, 27, 10, 35, 11, 11, 0)
s = 68: (0, 20, 18, 3, 12, 20, 21, 12, 45, 11, 9, 0)
s = 69: (0, 23, 48, 3, 8, 24, 22, 14, 41, 8, 22, 0)
s = 70: (0, 26, 31, 5, 7, 34, 28, 14, 45, 9, 13, 0)
s = 71: (0, 24, 38, 5, 15, 42, 24, 13, 44, 9, 7, 0)
s = 72: (0, 21, 19, 4, 7, 21, 31, 8, 53, 12, 12, 0)
s = 73: (0, 14, 45, 4, 10, 33, 40, 14, 77, 9, 19, 0)
s = 74: (0, 16, 29, 3, 9, 38, 44, 12, 34, 8, 19, 0)
s = 75: (0, 20, 30, 3, 14, 24, 33, 9, 40, 10, 14, 0)
s = 76: (0, 16, 32, 5, 9, 49, 17, 14, 41, 19, 19, 0)
s = 77: (0, 15, 25, 3, 12, 26, 24, 10, 34, 6, 11, 0)
s = 78: (0, 21, 29, 3, 7, 42, 38, 9, 26, 9, 16, 0)
s = 79: (0, 20, 25, 3, 8, 22, 36, 13, 59, 7, 8, 0)
s = 80: (0, 18, 20, 4, 11, 18, 17, 12, 39, 14, 8, 0)
s = 81: (0, 22, 30, 3, 12, 33, 21, 9, 42, 9, 10, 0)
s = 82: (0, 17, 31, 2, 7, 26, 25, 13, 53, 7, 9, 0)
s = 83: (0, 29, 33, 3, 8, 25, 19, 18, 25, 10, 16, 0)
s = 84: (0, 17, 21, 2, 8, 46, 25, 21, 33, 9, 12, 0)
s = 85: (0, 15, 22, 2, 15, 27, 25, 13, 52, 12, 11, 0)
s = 86: (0, 17, 23, 4, 12, 32, 32, 14, 33, 10, 13, 0)
s = 87: (0, 30, 44, 4, 7, 42, 28, 15, 41, 8, 19, 0)
s = 88: (0, 22, 32, 3, 8, 53, 30, 12, 40, 9, 18, 0)
s = 89: (0, 30, 45, 3, 8, 28, 25, 17, 35, 10, 15, 0)
s = 90: (0, 25, 34, 3, 8, 24, 24, 13, 59, 8, 10, 0)
s = 91: (0, 17, 41, 4, 8, 29, 40, 12, 34, 16, 10, 0)
s = 92: (0, 25, 18, 3, 9, 43, 33, 13, 60, 7, 9, 0)
s = 93: (0, 17, 26, 3, 12, 37, 28, 9, 57, 15, 8, 0)
s = 94: (0, 23, 29, 4, 5, 35, 42, 17, 38, 9, 10, 0)
s = 95: (0, 34, 25, 5, 12, 29, 29, 10, 31, 14, 12, 0)
s = 96: (0, 18, 26, 4, 10, 32, 29, 19, 56, 10, 21, 0)
s = 97: (0, 24, 35, 3, 14, 21, 25, 10, 39, 7, 13, 0)
s = 98: (0, 14, 21, 3, 16, 20, 42, 15, 52, 16, 8, 0)
s = 99: (0, 21, 24, 4, 8, 28, 27, 18, 55, 11, 13, 0)
s = 100: (0, 16, 30, 4, 7, 19, 30, 12, 34, 10, 12, 0)
s = 101: (0, 13, 44, 4, 12, 26, 31, 8, 31, 7, 9, 0)
s = 102: (0, 24, 39, 2, 13, 32, 24, 13, 42, 8, 13, 0)
s = 103: (0, 14, 24, 3, 9, 37, 27, 15, 28, 12, 18, 0)
s = 104: (0, 23, 28, 3, 12, 31, 45, 10, 41, 7, 12, 0)
s = 105: (0, 20, 38, 4, 9, 22, 39, 11, 46, 10, 13, 0)
s = 106: (0, 23, 33, 3, 13, 26, 40, 8, 46, 8, 15, 0)
s = 107: (0, 27, 50, 4, 12, 32, 29, 11, 49, 14, 13, 0)
s = 108: (0, 30, 26, 4, 7, 22, 51, 9, 37, 14, 12, 0)
s = 109: (0, 17, 24, 4, 15, 63, 27, 8, 52, 8, 16, 0)
s = 110: (0, 22, 35, 6, 7, 40, 41, 15, 50, 17, 10, 0)
s = 111: (0, 19, 39, 3, 8, 33, 24, 15, 50, 8, 16, 0)
s = 112: (0, 18, 33, 4, 10, 41, 32, 15, 44, 7, 17, 0)
s = 113: (0, 16, 29, 3, 9, 44, 48, 16, 73, 8, 15, 0)
s = 114: (0, 27, 27, 3, 11, 21, 28, 13, 67, 6, 19, 0)
s = 115: (0, 33, 32, 2, 5, 20, 19, 10, 33, 6, 19, 0)
s = 116: (0, 20, 28, 4, 6, 17, 41, 7, 45, 10, 9, 0)
s = 117: (0, 18, 55, 5, 10, 30, 25, 11, 60, 9, 14, 0)
s = 118: (0, 18, 19, 4, 9, 42, 29, 11, 64, 10, 12, 0)
s = 119: (0, 26, 17, 4, 8, 31, 32, 16, 33, 13, 7, 0)
s = 120: (0, 11, 36, 2, 12, 34, 35, 11, 47, 11, 19, 0)
s = 121: (0, 22, 36, 3, 6, 31, 25, 14, 36, 13, 14, 0)
s = 122: (0, 14, 33, 5, 11, 28, 34, 9, 36, 12, 21, 0)
s = 123: (0, 22, 19, 2, 11, 23, 46, 18, 29, 12, 19, 0)
s = 124: (0, 27, 23, 4, 14, 31, 26, 13, 36, 10, 14, 0)
s = 125: (0, 33, 49, 3, 8, 25, 40, 13, 32, 9, 14, 0)
s = 126: (0, 20, 30, 2, 10, 19, 45, 16, 44, 12, 9, 0)
s = 127: (0, 32, 26, 5, 10, 23, 15, 14, 41, 6, 8, 0)
s = 128: (0, 21, 34, 3, 13, 34, 28, 16, 48, 15, 16, 0)
s = 129: (0, 21, 26, 2, 5, 48, 17, 11, 39, 11, 12, 0)
s = 130: (0, 24, 42, 4, 12, 42, 25, 17, 41, 10, 14, 0)
s = 131: (0, 15, 31, 3, 9, 35, 25, 16, 33, 7, 16, 0)
s = 132: (0, 27, 21, 5, 10, 30, 30, 20, 45, 7, 18, 0)
s = 133: (0, 12, 33, 3, 9, 16, 24, 14, 38, 16, 13, 0)
s = 134: (0, 20, 22, 4, 9, 19, 32, 15, 54, 8, 8, 0)
s = 135: (0, 16, 26, 4, 11, 41, 39, 21, 39, 7, 14, 0)
s = 136: (0, 17, 26, 3, 10, 36, 44, 10, 48, 9, 15, 0)
s = 137: (0, 30, 33, 2, 9, 20, 40, 10, 33, 12, 10, 0)
s = 138: (0, 30, 31, 4, 10, 23, 17, 14, 74, 9, 16, 0)
s = 139: (0, 14, 22, 3, 15, 37, 29, 16, 57, 13, 20, 0)
s = 140: (0, 20, 44, 6, 9, 30, 43, 8, 58, 8, 13, 0)
s = 141: (0, 19, 21, 2, 7, 30, 20, 11, 38, 11, 18, 0)
s = 142: (0, 16, 37, 5, 8, 40, 29, 14, 54, 8, 12, 0)
s = 143: (0, 20, 21, 3, 9, 22, 54, 11, 67, 11, 9, 0)
s = 144: (0, 25, 28, 4, 7, 21, 30, 12, 53, 14, 16, 0)
s = 145: (0, 21, 25, 3, 8, 23, 15, 19, 36, 7, 13, 0)
s = 146: (0, 13, 35, 3, 13, 21, 28, 21, 57, 11, 12, 0)
s = 147: (0, 20, 31, 5, 6, 40, 18, 10, 51, 7, 10, 0)
s = 148: (0, 20, 36, 2, 14, 21, 23, 13, 45, 8, 11, 0)
s = 149: (0, 21, 33, 2, 13, 28, 31, 11, 47, 7, 11, 0)
s = 150: (0, 19, 30, 5, 12, 24, 29, 11, 42, 13, 10, 0)
s = 151: (0, 28, 39, 3, 8, 33, 29, 13, 35, 8, 16, 0)
s = 152: (0, 20, 35, 2, 7, 34, 32, 15, 52, 8, 9, 0)
s = 153: (0, 26, 26, 3, 5, 24, 25, 12, 47, 11, 12, 0)
s = 154: (0, 19, 34, 3, 7, 18, 24, 9, 38, 7, 14, 0)
s = 155: (0, 14, 33, 2, 8, 20, 26, 12, 51, 9, 10, 0)
s = 156: (0, 35, 31, 3, 11, 39, 38, 12, 81, 8, 11, 0)
s = 157: (0, 20, 31, 2, 8, 23, 21, 9, 37, 12, 12, 0)
s = 158: (0, 26, 45, 3, 9, 17, 46, 10, 54, 12, 11, 0)
s = 159: (0, 18, 29, 4, 13, 41, 17, 20, 57, 12, 15, 0)
s = 160: (0, 17, 38, 2, 9, 31, 20, 15, 71, 7, 9, 0)
s = 161: (0, 16, 24, 3, 7, 24, 16, 18, 58, 9, 23, 0)
s = 162: (0, 15, 33, 3, 10, 29, 29, 18, 44, 6, 11, 0)
s = 163: (0, 24, 25, 4, 9, 27, 24, 14, 43, 12, 16, 0)
s = 164: (0, 19, 35, 4, 6, 22, 17, 14, 41, 8, 9, 0)
s = 165: (0, 23, 35, 4, 8, 17, 24, 11, 41, 11, 15, 0)
s = 166: (0, 29, 38, 3, 8, 34, 26, 10, 37, 9, 14, 0)
s = 167: (0, 33, 22, 3, 11, 18, 22, 10, 48, 13, 15, 0)
s = 168: (0, 24, 26, 2, 8, 31, 23, 8, 57, 7, 11, 0)
s = 169: (0, 16, 22, 3, 7, 26, 26, 12, 31, 9, 13, 0)
s = 170: (0, 20, 35, 4, 11, 25, 23, 10, 44, 7, 14, 0)
s = 171: (0, 25, 35, 4, 6, 38, 41, 14, 38, 13, 9, 0)
s = 172: (0, 17, 43, 5, 11, 30, 24, 14, 33, 7, 13, 0)
s = 173: (0, 23, 42, 3, 11, 42, 28, 11, 62, 13, 10, 0)
s = 174: (0, 19, 22, 3, 9, 34, 34, 15, 49, 10, 12, 0)
s = 175: (0, 27, 19, 4, 8, 38, 26, 12, 27, 7, 8, 0)
s = 176: (0, 14, 17, 2, 10, 32, 21, 17, 44, 9, 13, 0)
s = 177: (0, 16, 47, 4, 7, 44, 28, 15, 59, 18, 21, 0)
s = 178: (0, 30, 25, 3, 7, 20, 23, 13, 45, 12, 17, 0)
s = 179: (0, 27, 21, 4, 12, 21, 26, 14, 49, 10, 13, 0)
s = 180: (0, 20, 25, 3, 10, 33, 25, 13, 64, 12, 14, 0)
s = 181: (0, 16, 31, 5, 11, 23, 35, 8, 45, 10, 17, 0)
s = 182: (0, 26, 26, 3, 9, 35, 32, 13, 38, 7, 10, 0)
s = 183: (0, 18, 22, 2, 9, 20, 32, 17, 58, 7, 8, 0)
s = 184: (0, 19, 17, 3, 9, 53, 32, 10, 62, 12, 13, 0)
s = 185: (0, 38, 25, 5, 6, 36, 24, 20, 38, 12, 11, 0)
s = 186: (0, 23, 30, 4, 11, 48, 30, 11, 61, 9, 9, 0)
s = 187: (0, 15, 38, 3, 6, 36, 25, 13, 49, 8, 17, 0)
s = 188: (0, 19, 39, 4, 9, 33, 38, 7, 41, 14, 15, 0)
s = 189: (0, 17, 26, 3, 8, 24, 21, 10, 49, 16, 21, 0)
s = 190: (0, 22, 20, 3, 10, 57, 31, 8, 39, 11, 8, 0)
s = 191: (0, 22, 20, 2, 8, 24, 21, 10, 39, 15, 21, 0)
s = 192: (0, 27, 37, 3, 14, 48, 26, 14, 36, 13, 12, 0)
s = 193: (0, 18, 26, 3, 11, 29, 30, 16, 78, 13, 10, 0)
s = 194: (0, 14, 20, 3, 12, 40, 22, 9, 47, 8, 11, 0)
s = 195: (0, 25, 30, 3, 11, 28, 24, 18, 44, 14, 13, 0)
s = 196: (0, 19, 29, 4, 6, 27, 32, 14, 42, 8, 12, 0)
s = 197: (0, 36, 32, 4, 9, 17, 25, 12, 41, 7, 13, 0)
s = 198: (0, 16, 33, 5, 7, 30, 19, 11, 54, 9, 15, 0)
s = 199: (0, 17, 37, 3, 9, 27, 21, 19, 54, 7, 14, 0)
s = 200: (0, 25, 21, 2, 9, 36, 27, 17, 33, 15, 9, 0)
------------------------------------------------------------------------
RESOURCE k = 3
s = 1: (0, 27, 6, 5, 6, 28, 23, 13, 27, 13, 21, 0)
s = 2: (0, 20, 10, 8, 7, 25, 11, 20, 21, 9, 17, 0)
s = 3: (0, 40, 6, 6, 6, 28, 14, 24, 14, 11, 35, 0)
s = 4: (0, 16, 10, 6, 6, 22, 10, 15, 33, 12, 24, 0)
s = 5: (0, 19, 10, 7, 6, 23, 21, 17, 16, 7, 16, 0)
s = 6: (0, 29, 12, 9, 5, 25, 15, 21, 26, 7, 17, 0)
s = 7: (0, 19, 11, 6, 4, 22, 20, 10, 28, 11, 28, 0)
s = 8: (0, 20, 8, 7, 9, 29, 14, 10, 30, 8, 28, 0)
s = 9: (0, 24, 9, 5, 7, 39, 12, 13, 22, 6, 22, 0)
s = 10: (0, 25, 5, 6, 4, 29, 20, 16, 25, 7, 32, 0)
s = 11: (0, 18, 14, 7, 8, 19, 17, 26, 15, 12, 17, 0)
s = 12: (0, 30, 8, 6, 4, 18, 19, 16, 14, 10, 22, 0)
s = 13: (0, 22, 9, 4, 5, 36, 14, 20, 23, 5, 20, 0)
s = 14: (0, 34, 6, 5, 7, 20, 14, 19, 22, 13, 20, 0)
s = 15: (0, 18, 9, 6, 8, 19, 15, 16, 18, 8, 12, 0)
s = 16: (0, 25, 7, 6, 5, 30, 21, 11, 20, 7, 16, 0)
s = 17: (0, 43, 12, 9, 5, 34, 12, 11, 17, 8, 28, 0)
s = 18: (0, 32, 8, 8, 6, 17, 18, 16, 28, 9, 24, 0)
s = 19: (0, 28, 13, 4, 5, 49, 18, 13, 32, 9, 24, 0)
s = 20: (0, 42, 12, 4, 4, 20, 15, 11, 22, 6, 16, 0)
s = 21: (0, 28, 9, 6, 8, 33, 19, 20, 17, 10, 17, 0)
s = 22: (0, 29, 14, 7, 9, 21, 11, 19, 19, 8, 25, 0)
s = 23: (0, 27, 10, 7, 8, 33, 14, 28, 16, 10, 22, 0)
s = 24: (0, 46, 6, 8, 10, 47, 14, 13, 15, 11, 30, 0)
s = 25: (0, 20, 10, 4, 8, 41, 19, 11, 16, 8, 18, 0)
s = 26: (0, 35, 9, 8, 5, 17, 23, 15, 30, 5, 12, 0)
s = 27: (0, 35, 9, 6, 7, 28, 14, 14, 27, 5, 19, 0)
s = 28: (0, 22, 10, 7, 6, 42, 12, 13, 16, 8, 31, 0)
s = 29: (0, 28, 11, 5, 6, 22, 10, 9, 32, 7, 28, 0)
s = 30: (0, 28, 10, 7, 4, 28, 11, 26, 17, 7, 15, 0)
s = 31: (0, 24, 11, 6, 10, 39, 22, 24, 16, 9, 17, 0)
s = 32: (0, 22, 8, 7, 8, 22, 19, 16, 21, 11, 36, 0)
s = 33: (0, 30, 8, 10, 7, 39, 20, 17, 20, 7, 34, 0)
s = 34: (0, 37, 8, 4, 5, 30, 14, 10, 15, 10, 11, 0)
s = 35: (0, 26, 9, 5, 7, 27, 17, 16, 18, 9, 22, 0)
s = 36: (0, 30, 7, 5, 5, 21, 11, 19, 18, 7, 31, 0)
s = 37: (0, 18, 8, 8, 6, 17, 16, 16, 21, 13, 14, 0)
s = 38: (0, 31, 14, 7, 6, 23, 12, 10, 23, 8, 32, 0)
s = 39: (0, 31, 7, 6, 8, 27, 15, 21, 28, 9, 31, 0)
s = 40: (0, 39, 7, 5, 5, 32, 15, 16, 23, 10, 15, 0)
s = 41: (0, 17, 6, 8, 10, 32, 10, 23, 25, 12, 16, 0)
s = 42: (0, 25, 12, 8, 7, 26, 16, 15, 25, 6, 24, 0)
s = 43: (0, 25, 14, 8, 7, 29, 14, 22, 28, 10, 27, 0)
s = 44: (0, 29, 7, 8, 5, 46, 13, 27, 20, 9, 26, 0)
s = 45: (0, 32, 8, 4, 6, 18, 23, 21, 36, 8, 21, 0)
s = 46: (0, 23, 8, 6, 8, 18, 15, 20, 25, 9, 24, 0)
s = 47: (0, 17, 8, 6, 8, 30, 21, 11, 27, 9, 19, 0)
s = 48: (0, 23, 8, 8, 4, 35, 17, 13, 35, 13, 24, 0)
s = 49: (0, 20, 7, 7, 6, 19, 13, 10, 33, 6, 20, 0)
s = 50: (0, 34, 13, 6, 6, 33, 27, 14, 19, 9, 18, 0)
s = 51: (0, 23, 10, 6, 4, 26, 17, 15, 20, 5, 16, 0)
s = 52: (0, 21, 12, 5, 5, 39, 9, 20, 23, 7, 17, 0)
s = 53: (0, 47, 7, 7, 8, 41, 22, 18, 30, 5, 16, 0)
s = 54: (0, 28, 7, 5, 6, 31, 15, 16, 25, 10, 18, 0)
s = 55: (0, 30, 9, 4, 9, 21, 14, 18, 16, 7, 18, 0)
s = 56: (0, 32, 9, 5, 5, 22, 10, 16, 15, 8, 14, 0)
s = 57: (0, 24, 15, 5, 7, 34, 10, 21, 17, 12, 22, 0)
s = 58: (0, 25, 10, 5, 5, 25, 19, 14, 26, 12, 24, 0)
s = 59: (0, 22, 9, 5, 5, 23, 27, 12, 19, 7, 30, 0)
s = 60: (0, 33, 10, 8, 7, 28, 16, 18, 24, 6, 17, 0)
s = 61: (0, 40, 11, 5, 8, 24, 13, 14, 31, 8, 21, 0)
s = 62: (0, 31, 9, 5, 7, 41, 15, 14, 19, 6, 25, 0)
s = 63: (0, 25, 9, 8, 7, 21, 15, 16, 23, 10, 25, 0)
s = 64: (0, 20, 11, 8, 6, 23, 12, 25, 33, 6, 17, 0)
s = 65: (0, 26, 8, 5, 6, 20, 23, 16, 21, 11, 27, 0)
s = 66: (0, 31, 9, 5, 4, 40, 19, 20, 26, 11, 15, 0)
s = 67: (0, 21, 10, 5, 4, 21, 16, 13, 20, 9, 19, 0)
s = 68: (0, 25, 6, 5, 8, 18, 12, 15, 25, 9, 15, 0)
s = 69: (0, 29, 15, 6, 5, 21, 13, 18, 23, 7, 38, 0)
s = 70: (0, 34, 10, 9, 5, 31, 16, 18, 25, 8, 23, 0)
s = 71: (0, 31, 12, 9, 10, 38, 14, 17, 25, 7, 12, 0)
s = 72: (0, 27, 6, 8, 5, 19, 18, 11, 30, 10, 20, 0)
s = 73: (0, 17, 14, 8, 7, 30, 23, 19, 43, 8, 33, 0)
s = 74: (0, 21, 9, 6, 6, 34, 25, 15, 19, 7, 33, 0)
s = 75: (0, 25, 9, 5, 9, 22, 19, 12, 23, 8, 24, 0)
s = 76: (0, 20, 10, 9, 6, 45, 10, 18, 23, 16, 33, 0)
s = 77: (0, 20, 8, 5, 8, 23, 14, 13, 19, 5, 18, 0)
s = 78: (0, 26, 9, 5, 5, 37, 22, 12, 15, 7, 28, 0)
s = 79: (0, 26, 8, 6, 6, 20, 21, 17, 33, 6, 14, 0)
s = 80: (0, 22, 6, 8, 8, 16, 10, 16, 22, 12, 14, 0)
s = 81: (0, 28, 9, 5, 8, 30, 12, 12, 24, 7, 17, 0)
s = 82: (0, 21, 10, 4, 5, 23, 14, 17, 30, 6, 15, 0)
s = 83: (0, 37, 10, 6, 5, 23, 11, 23, 14, 8, 27, 0)
s = 84: (0, 21, 7, 4, 5, 42, 14, 28, 18, 8, 20, 0)
s = 85: (0, 20, 7, 4, 10, 25, 14, 18, 29, 9, 19, 0)
s = 86: (0, 22, 7, 7, 8, 29, 19, 18, 18, 8, 23, 0)
s = 87: (0, 38, 14, 7, 5, 37, 16, 19, 23, 6, 33, 0)
s = 88: (0, 29, 10, 6, 5, 47, 17, 16, 23, 7, 32, 0)
s = 89: (0, 38, 14, 6, 6, 25, 14, 23, 20, 8, 27, 0)
s = 90: (0, 31, 10, 6, 6, 22, 14, 17, 33, 6, 16, 0)
s = 91: (0, 22, 13, 7, 5, 26, 23, 16, 19, 13, 17, 0)
s = 92: (0, 32, 6, 6, 6, 39, 19, 17, 34, 6, 15, 0)
s = 93: (0, 21, 8, 6, 8, 33, 16, 11, 32, 12, 13, 0)
s = 94: (0, 30, 9, 8, 4, 32, 24, 23, 21, 8, 17, 0)
s = 95: (0, 44, 8, 9, 8, 26, 17, 13, 18, 11, 20, 0)
s = 96: (0, 23, 8, 8, 7, 28, 17, 26, 31, 8, 36, 0)
s = 97: (0, 30, 11, 5, 9, 19, 15, 14, 22, 6, 22, 0)
s = 98: (0, 18, 7, 6, 11, 18, 24, 20, 29, 13, 14, 0)
s = 99: (0, 27, 7, 7, 5, 25, 16, 24, 31, 9, 23, 0)
s = 100: (0, 20, 9, 8, 5, 17, 17, 16, 19, 8, 20, 0)
s = 101: (0, 17, 14, 7, 8, 23, 18, 11, 18, 6, 16, 0)
s = 102: (0, 31, 12, 4, 9, 29, 14, 17, 24, 6, 22, 0)
s = 103: (0, 18, 8, 6, 6, 33, 16, 20, 16, 10, 32, 0)
s = 104: (0, 29, 9, 6, 8, 28, 26, 13, 23, 5, 21, 0)
s = 105: (0, 25, 12, 7, 6, 20, 22, 15, 26, 8, 22, 0)
s = 106: (0, 30, 10, 6, 9, 24, 23, 11, 26, 7, 27, 0)
s = 107: (0, 34, 15, 7, 8, 29, 17, 14, 28, 12, 23, 0)
s = 108: (0, 39, 8, 7, 5, 20, 29, 11, 21, 11, 20, 0)
s = 109: (0, 22, 7, 7, 10, 56, 16, 11, 29, 6, 27, 0)
s = 110: (0, 28, 11, 11, 5, 36, 24, 20, 28, 14, 18, 0)
s = 111: (0, 24, 12, 5, 5, 29, 14, 19, 28, 6, 28, 0)
s = 112: (0, 23, 10, 8, 7, 37, 18, 19, 25, 6, 30, 0)
s = 113: (0, 21, 9, 5, 6, 40, 28, 21, 41, 6, 26, 0)
s = 114: (0, 35, 8, 6, 8, 19, 16, 17, 37, 5, 33, 0)
s = 115: (0, 42, 10, 4, 4, 18, 11, 13, 19, 5, 33, 0)
s = 116: (0, 26, 9, 7, 4, 15, 24, 9, 25, 8, 16, 0)
s = 117: (0, 24, 17, 10, 7, 27, 15, 15, 34, 7, 23, 0)
s = 118: (0, 22, 6, 7, 6, 37, 17, 14, 36, 8, 21, 0)
s = 119: (0, 33, 5, 7, 5, 28, 19, 21, 19, 11, 12, 0)
s = 120: (0, 14, 11, 4, 8, 31, 20, 15, 26, 9, 33, 0)
s = 121: (0, 28, 11, 6, 4, 28, 14, 18, 20, 10, 25, 0)
s = 122: (0, 18, 10, 9, 8, 25, 20, 12, 20, 10, 36, 0)
s = 123: (0, 28, 6, 4, 7, 20, 27, 24, 16, 10, 32, 0)
s = 124: (0, 35, 7, 8, 10, 28, 15, 18, 20, 8, 24, 0)
s = 125: (0, 42, 15, 5, 6, 22, 23, 17, 18, 7, 23, 0)
s = 126: (0, 25, 9, 4, 7, 17, 26, 22, 24, 10, 15, 0)
s = 127: (0, 41, 8, 9, 7, 21, 9, 19, 23, 5, 13, 0)
s = 128: (0, 27, 11, 5, 9, 31, 16, 21, 27, 12, 27, 0)
s = 129: (0, 27, 8, 4, 4, 44, 10, 14, 22, 9, 21, 0)
s = 130: (0, 30, 13, 7, 8, 38, 15, 22, 23, 8, 24, 0)
s = 131: (0, 19, 10, 6, 6, 32, 14, 21, 19, 6, 28, 0)
s = 132: (0, 35, 7, 9, 7, 27, 17, 27, 25, 6, 31, 0)
s = 133: (0, 16, 10, 6, 6, 14, 14, 19, 21, 13, 22, 0)
s = 134: (0, 25, 7, 8, 6, 17, 18, 20, 30, 7, 13, 0)
s = 135: (0, 20, 8, 8, 7, 37, 22, 28, 22, 6, 23, 0)
s = 136: (0, 22, 8, 5, 7, 33, 26, 13, 27, 7, 25, 0)
s = 137: (0, 39, 10, 4, 6, 18, 23, 13, 19, 10, 17, 0)
s = 138: (0, 38, 10, 7, 7, 21, 10, 18, 42, 7, 28, 0)
s = 139: (0, 18, 7, 5, 10, 33, 17, 21, 32, 10, 35, 0)
s = 140: (0, 25, 13, 11, 6, 27, 25, 11, 33, 7, 23, 0)
s = 141: (0, 24, 7, 4, 5, 27, 12, 15, 21, 9, 32, 0)
s = 142: (0, 20, 11, 9, 6, 36, 17, 18, 30, 7, 20, 0)
s = 143: (0, 26, 7, 6, 6, 20, 31, 14, 37, 9, 15, 0)
s = 144: (0, 31, 9, 7, 5, 19, 17, 15, 30, 11, 27, 0)
s = 145: (0, 27, 8, 6, 5, 21, 9, 25, 20, 6, 22, 0)
s = 146: (0, 17, 11, 6, 9, 19, 16, 28, 32, 9, 20, 0)
s = 147: (0, 25, 10, 10, 4, 36, 11, 13, 29, 6, 18, 0)
s = 148: (0, 26, 11, 4, 9, 19, 13, 18, 25, 7, 19, 0)
s = 149: (0, 27, 10, 4, 9, 25, 18, 15, 26, 6, 19, 0)
s = 150: (0, 25, 9, 9, 8, 22, 17, 15, 23, 10, 16, 0)
s = 151: (0, 36, 12, 5, 6, 30, 17, 17, 20, 7, 28, 0)
s = 152: (0, 25, 11, 4, 5, 31, 19, 19, 29, 6, 16, 0)
s = 153: (0, 33, 8, 5, 4, 22, 14, 16, 27, 9, 21, 0)
s = 154: (0, 24, 11, 5, 5, 17, 14, 12, 22, 6, 24, 0)
s = 155: (0, 18, 10, 4, 5, 18, 15, 16, 28, 7, 17, 0)
s = 156: (0, 45, 10, 6, 8, 35, 22, 15, 45, 6, 18, 0)
s = 157: (0, 25, 10, 4, 6, 21, 12, 12, 21, 10, 21, 0)
s = 158: (0, 34, 14, 5, 6, 15, 27, 13, 30, 9, 19, 0)
s = 159: (0, 23, 9, 8, 9, 37, 10, 26, 32, 10, 26, 0)
s = 160: (0, 22, 12, 4, 6, 28, 12, 20, 40, 6, 15, 0)
s = 161: (0, 20, 8, 5, 5, 22, 10, 23, 32, 7, 40, 0)
s = 162: (0, 20, 10, 5, 7, 26, 17, 24, 25, 5, 18, 0)
s = 163: (0, 30, 8, 7, 6, 24, 14, 18, 24, 10, 27, 0)
s = 164: (0, 25, 11, 7, 4, 20, 10, 18, 23, 6, 15, 0)
s = 165: (0, 30, 11, 7, 5, 16, 14, 15, 23, 9, 25, 0)
s = 166: (0, 37, 12, 5, 6, 30, 15, 13, 21, 8, 24, 0)
s = 167: (0, 43, 7, 5, 8, 17, 13, 13, 27, 11, 26, 0)
s = 168: (0, 31, 8, 4, 6, 28, 14, 10, 32, 6, 20, 0)
s = 169: (0, 20, 7, 6, 5, 23, 15, 16, 18, 7, 23, 0)
s = 170: (0, 25, 11, 8, 7, 23, 13, 13, 25, 6, 23, 0)
s = 171: (0, 32, 11, 7, 4, 35, 23, 18, 21, 10, 15, 0)
s = 172: (0, 22, 13, 9, 8, 27, 14, 19, 19, 5, 23, 0)
s = 173: (0, 29, 13, 6, 8, 38, 16, 14, 35, 10, 17, 0)
s = 174: (0, 25, 7, 6, 6, 31, 20, 20, 27, 8, 21, 0)
s = 175: (0, 34, 6, 8, 5, 34, 15, 16, 15, 5, 14, 0)
s = 176: (0, 18, 6, 4, 7, 29, 12, 22, 24, 7, 23, 0)
s = 177: (0, 20, 14, 7, 5, 40, 16, 20, 33, 15, 36, 0)
s = 178: (0, 38, 8, 5, 5, 18, 13, 17, 25, 9, 29, 0)
s = 179: (0, 35, 7, 7, 8, 19, 15, 18, 27, 8, 23, 0)
s = 180: (0, 25, 8, 6, 7, 30, 14, 17, 36, 10, 25, 0)
s = 181: (0, 20, 10, 9, 7, 20, 20, 10, 25, 8, 29, 0)
s = 182: (0, 34, 8, 5, 6, 32, 18, 18, 22, 6, 18, 0)
s = 183: (0, 23, 7, 4, 6, 18, 19, 22, 33, 6, 14, 0)
s = 184: (0, 25, 5, 6, 6, 48, 18, 13, 35, 9, 22, 0)
s = 185: (0, 49, 8, 9, 4, 33, 14, 26, 21, 10, 19, 0)
s = 186: (0, 29, 9, 7, 8, 43, 17, 15, 34, 7, 16, 0)
s = 187: (0, 19, 12, 5, 4, 32, 15, 17, 27, 7, 29, 0)
s = 188: (0, 24, 12, 8, 6, 29, 22, 9, 23, 11, 26, 0)
s = 189: (0, 22, 8, 5, 5, 21, 12, 13, 28, 13, 36, 0)
s = 190: (0, 28, 6, 5, 7, 51, 18, 10, 22, 9, 13, 0)
s = 191: (0, 28, 6, 4, 5, 22, 12, 13, 22, 12, 36, 0)
s = 192: (0, 34, 12, 5, 9, 43, 15, 18, 20, 11, 21, 0)
s = 193: (0, 23, 8, 6, 8, 26, 18, 21, 44, 11, 17, 0)
s = 194: (0, 18, 6, 6, 8, 36, 13, 12, 26, 7, 19, 0)
s = 195: (0, 33, 9, 5, 7, 25, 14, 24, 25, 11, 22, 0)
s = 196: (0, 25, 9, 8, 4, 24, 19, 19, 23, 6, 21, 0)
s = 197: (0, 47, 10, 8, 6, 15, 14, 15, 23, 6, 22, 0)
s = 198: (0, 20, 10, 9, 5, 27, 11, 14, 30, 7, 25, 0)
s = 199: (0, 22, 11, 5, 6, 24, 12, 26, 30, 6, 24, 0)
s = 200: (0, 32, 7, 4, 6, 32, 16, 23, 19, 12, 16, 0)
************************************************************************
ES/LS-VALUES:
jobnr.   ES(i)    LS(i)
------------------------------------------------------------------------
  0        0        0
  1        0       51
  2        0       59
  3        0       64
  4        5       57
  5        6       59
  6        5       65
  7        6       62
  8       12       66
  9       12       73
 10       12       69
 11       21       75
************************************************************************
BIG-M-VALUES:
M1 = 49, M2 = 225
************************************************************************
